/*********************************************
 * OPL 12.6.0.0 Data
 * Author: Adrian Rodriguez Bazaga, Pau Rodriguez Esmerats
 * Creation Date: 09/12/2017 at 16:38:23
 *********************************************/

maxConsec=6;
maxPresence=12;
maxHours=8;
minHours=2;
hours=18;
demand= [682 929 936 733 740 724 612 894 914 793 594 386 171 41 32 26 25 22  ];
nNurses=1600;
